\ENCODING=ISO-8859-1
\Problem name: ilog.cplex

Minimize
 obj: x1 + x2 + x3 + x4 + x5 + x6 + x7 + x8 + x9 + x10 + x11 + x12 + x13 + x14
      + x15 + x16
Subject To
 c1:  x1 + x33 + x34 + x35 + x36 + x37 + x38 + x39 + x40 + x41 + x42 + x43
      + x44 + x45 + x46 + x47 + x48 + x49 + x50 + x51 + x52 + x53 + x54 + x55
      + x56 + x57 + x58 + x59 + x60 + x61 + x62 + x63 + x64 + x65 + x66 + x67
      + x68 + x69 + x70 + x71 + x72 + x73 + x74 + x75 + x76 + x77 + x78 + x79
      + x80 + x81 + x82 + x83 + x84 + x85 + x86 + x87 + x88 + x89 + x90 + x91
      + x92 + x93 + x94 + x95 + x96 + x97 + x98 + x99 + x100 + x101 + x102
      + x103 + x104 + x105 + x106 + x107 + x108 + x109 + x110 + x111 + x112
      + x113 + x114 + x115 + x116 + x117 + x118 + x119 + x120 + x121 + x122
      + x123 + x124 + x125 + x126 + x127 + x128 + x129 + x130 + x131 + x132
      + x133 + x134 + x135 + x136 + x137 + x138 + x139 + x140 + x141 + x142
      + x143 + x144 + x145 + x146 + x147 + x148 + x149 + x150 + x151 + x152
      + x153 + x154 + x155 + x156 + x157 + x158 + x159 + x160 + x161 + x162
      + x163 + x164 + x165 + x166 + x167 + x168 + x169 + x170 + x171 + x172
      + x173 + x174 + x175 + x176 + x177 + x178 + x179 + x180 + x181 + x182
      + x183 + x184 + x185 + x186 + x187 + x188 + x189 + x190 + x191 + x192
      + x193 + x194 + x195 + x196 + x197 + x198 + x199 + x200 + x201 + x202
      + x203 + x204 + x205 + x206 + x207 + x208 + x209 + x210 + x211 + x212
      + x213 + x214 + x215 + x216 + x217 + x218 + x219 + x220 + x221 + x222
      + x223 + x224 + x225 + x226 + x227 + x228 + x229 + x230 + x231 + x232
      + x233 + x234 + x235 + x236 + x237 + x238 + x239 + x240 + x241 + x242
      + x243 + x244 + x245 + x246 + x247 + x248 + x249 + x250 + x251 + x252
      + x253 + x254 + x255 + x256 + x257 + x258 >= 1
 c3:  x2 + x33 + x34 + x50 + x51 + x73 + x80 + x87 + x91 + x116 + x119 + x137
      + x138 + x144 + x173 + x201 + x204 + x206 + x211 + x213 + x214 + x217
      + x226 + x235 + x238 + x243 + x253 + x485 + x486 + x487 + x488 + x489
      + x490 + x491 + x492 + x493 + x494 + x495 + x496 >= 1
 c5:  x3 + x78 + x91 + x94 + x129 + x146 + x159 + x166 + x171 + x176 + x207
      + x497 + x498 + x499 + x500 + x501 + x502 + x503 + x504 + x505 + x506
      + x507 + x508 + x509 + x510 >= 1
 c7:  x4 + x38 + x50 + x57 + x61 + x62 + x66 + x72 + x75 + x81 + x84 + x92
      + x130 + x170 + x174 + x183 + x199 + x487 + x505 + x506 + x525 + x526
      + x527 + x528 + x529 + x530 + x531 + x532 + x533 + x534 + x535 + x536
      + x537 + x538 + x539 + x540 + x541 + x542 + x543 + x544 + x545 + x546
      + x547 + x548 + x549 + x550 + x551 + x552 + x553 + x554 + x555 >= 1
 c9:  x5 + x36 + x38 + x50 + x52 + x58 + x64 + x66 + x69 + x72 + x75 + x82
      + x88 + x89 + x92 + x93 + x98 + x99 + x128 + x129 + x130 + x148 + x151
      + x159 + x169 + x170 + x174 + x183 + x196 + x234 + x239 + x250 + x487
      + x497 + x526 + x527 + x532 + x534 + x535 + x538 + x541 + x546 + x551
      + x587 + x588 + x589 + x590 + x591 + x592 + x593 + x594 + x595 + x596
      >= 1
 c11: x6 + x42 + x44 + x46 + x47 + x53 + x63 + x66 + x68 + x70 + x72 + x74
      + x78 + x79 + x80 + x81 + x83 + x87 + x88 + x90 + x93 + x105 + x110
      + x121 + x128 + x130 + x134 + x136 + x143 + x146 + x148 + x153 + x157
      + x160 + x161 + x163 + x167 + x168 + x169 + x170 + x173 + x174 + x178
      + x183 + x184 + x187 + x189 + x194 + x199 + x202 + x206 + x209 + x210
      + x213 + x215 + x216 + x222 + x223 + x224 + x226 + x227 + x241 + x254
      + x485 + x494 + x497 + x536 + x537 + x538 + x548 + x550 + x590 + x607
      + x608 + x609 + x610 + x611 + x612 >= 1
 c13: x7 + x34 + x35 + x45 + x59 + x64 + x78 + x82 + x89 + x100 + x127 + x148
      + x157 + x172 + x175 + x177 + x180 + x188 + x202 + x231 + x251 + x508
      + x542 + x619 + x620 + x621 + x622 + x623 + x624 + x625 + x626 + x627
      + x628 >= 1
 c15: x8 + x48 + x54 + x61 + x62 + x71 + x89 + x94 + x97 + x125 + x166 + x168
      + x179 + x180 + x186 + x193 + x205 + x232 + x233 + x257 + x507 + x549
      + x639 + x640 + x641 + x642 + x643 >= 1
 c17: x9 + x49 + x52 + x76 + x84 + x92 + x111 + x124 + x145 + x147 + x150
      + x163 + x167 + x173 + x187 + x193 + x201 + x229 + x256 + x529 + x535
      + x587 + x591 + x619 + x625 + x626 + x649 + x650 + x651 + x652 + x653
      + x654 + x655 + x656 + x657 >= 1
 c19: x10 + x33 + x39 + x50 + x51 + x53 + x67 + x70 + x75 + x79 + x95 + x107
      + x113 + x114 + x133 + x135 + x152 + x158 + x175 + x181 + x182 + x188
      + x190 + x195 + x198 + x205 + x210 + x214 + x220 + x223 + x225 + x236
      + x237 + x246 + x249 + x487 + x495 + x498 + x527 + x545 + x552 + x592
      + x607 + x612 + x667 + x668 + x669 + x670 + x671 + x672 + x673 >= 1
 c21: x11 + x34 + x37 + x39 + x40 + x50 + x55 + x56 + x57 + x66 + x68 + x69
      + x72 + x75 + x81 + x88 + x90 + x92 + x95 + x96 + x101 + x104 + x106
      + x109 + x110 + x121 + x122 + x125 + x128 + x129 + x130 + x132 + x133
      + x137 + x139 + x141 + x142 + x143 + x144 + x155 + x157 + x162 + x167
      + x169 + x170 + x171 + x174 + x175 + x176 + x177 + x178 + x181 + x199
      + x200 + x203 + x204 + x212 + x219 + x222 + x224 + x225 + x227 + x228
      + x230 + x235 + x236 + x237 + x240 + x242 + x247 + x248 + x258 + x493
      + x496 + x503 + x528 + x542 + x543 + x547 + x548 + x554 + x590 + x592
      + x611 + x681 + x682 + x683 + x684 + x685 + x686 + x687 + x688 + x689
      + x690 >= 1
 c23: x12 + x43 + x60 + x64 + x65 + x85 + x108 + x112 + x115 + x117 + x125
      + x140 + x149 + x156 + x181 + x198 + x204 + x218 + x221 + x255 + x485
      + x498 + x503 + x506 + x527 + x530 + x533 + x539 + x553 + x619 + x655
      + x701 + x702 + x703 + x704 + x705 + x706 >= 1
 c25: x13 + x39 + x41 + x45 + x46 + x60 + x67 + x76 + x77 + x80 + x95 + x96
      + x98 + x100 + x108 + x109 + x110 + x111 + x117 + x118 + x119 + x120
      + x121 + x122 + x132 + x133 + x135 + x136 + x137 + x139 + x140 + x141
      + x142 + x144 + x145 + x147 + x149 + x150 + x151 + x152 + x153 + x154
      + x155 + x172 + x182 + x184 + x185 + x195 + x197 + x200 + x208 + x488
      + x490 + x501 + x525 + x529 + x532 + x533 + x536 + x540 + x541 + x544
      + x593 + x610 + x620 + x623 + x624 + x640 + x649 + x651 + x653 + x654
      + x667 + x670 + x681 + x682 + x683 + x686 + x702 + x703 + x713 + x714
      + x715 + x716 + x717 + x718 + x719 + x720 >= 1
 c27: x14 + x46 + x56 + x60 + x74 + x75 + x83 + x86 + x93 + x102 + x103 + x118
      + x120 + x131 + x132 + x146 + x154 + x164 + x171 + x186 + x191 + x197
      + x206 + x207 + x211 + x216 + x219 + x230 + x244 + x492 + x535 + x540
      + x544 + x550 + x555 + x587 + x594 + x673 + x681 + x689 + x714 + x716
      + x719 + x721 + x722 + x723 >= 1
 c29: x15 + x33 + x35 + x36 + x37 + x38 + x40 + x41 + x42 + x43 + x44 + x47
      + x48 + x49 + x51 + x53 + x54 + x55 + x56 + x57 + x58 + x59 + x61 + x62
      + x63 + x65 + x68 + x70 + x71 + x73 + x74 + x77 + x79 + x81 + x83 + x84
      + x85 + x86 + x87 + x90 + x97 + x99 + x101 + x102 + x103 + x104 + x105
      + x106 + x107 + x112 + x113 + x114 + x115 + x116 + x123 + x124 + x126
      + x127 + x131 + x134 + x138 + x156 + x158 + x160 + x161 + x162 + x164
      + x165 + x189 + x190 + x191 + x192 + x194 + x203 + x486 + x489 + x491
      + x499 + x500 + x502 + x504 + x505 + x525 + x526 + x528 + x530 + x531
      + x534 + x537 + x539 + x543 + x588 + x589 + x607 + x608 + x609 + x621
      + x622 + x639 + x641 + x650 + x652 + x668 + x669 + x684 + x685 + x687
      + x688 + x701 + x704 + x705 + x713 + x721 + x722 + x727 + x728 >= 1
 c31: x16 + x44 + x47 + x52 + x55 + x63 + x67 + x69 + x72 + x73 + x86 + x96
      + x109 + x123 + x126 + x139 + x142 + x163 + x165 + x168 + x176 + x179
      + x185 + x192 + x196 + x209 + x212 + x215 + x217 + x220 + x238 + x240
      + x245 + x252 + x531 + x545 + x547 + x591 + x594 + x671 + x715 + x717
      + x718 + x723 + x727 + x728 >= 1
 c33: x33 + x34 + x35 + x36 + x37 + x38 + x39 + x40 + x41 + x42 + x43 + x44
      + x45 + x46 + x47 + x48 + x49 + x50 + x51 + x52 + x53 + x54 + x55 + x56
      + x57 + x58 + x59 + x60 + x61 + x62 + x63 + x64 + x65 + x66 + x67 + x68
      + x69 + x70 + x71 + x72 + x73 + x74 + x75 + x76 + x77 + x78 + x79 + x80
      + x81 + x82 + x83 + x84 + x85 + x86 + x87 + x88 + x89 + x90 + x497 + x498
      + x499 + x500 + x525 + x526 + x527 + x587 + x607 + x619 + x713 <= 1
 c35: x91 + x92 + x93 + x94 + x95 + x96 + x97 + x98 + x99 + x100 + x101 + x102
      + x103 + x104 + x105 + x106 + x107 + x108 + x109 + x110 + x111 + x112
      + x113 + x114 + x115 + x116 + x117 + x118 + x119 + x120 + x121 + x122
      + x123 + x124 + x125 + x126 + x127 + x128 + x129 + x130 + x131 + x132
      + x133 + x134 + x135 + x136 + x137 + x138 + x139 + x140 + x141 + x142
      + x143 + x144 + x145 + x146 + x147 + x148 + x501 + x502 + x503 + x504
      + x505 + x528 + x529 + x530 + x531 + x532 + x533 + x534 + x535 + x588
      + x589 + x590 + x591 + x620 + x621 + x622 + x639 + x640 + x641 + x649
      + x650 + x651 + x652 + x681 + x701 <= 1
 c37: x149 + x150 + x151 + x152 + x153 + x154 + x155 + x156 + x157 + x158
      + x159 + x160 + x161 + x162 + x163 + x164 + x165 + x166 + x167 + x168
      + x169 + x170 + x171 + x172 + x173 + x174 + x175 + x176 + x177 + x485
      + x486 + x487 + x488 + x506 + x536 + x537 + x538 + x539 + x540 + x541
      + x542 + x592 + x593 + x594 + x608 + x623 + x624 + x625 + x653 + x654
      + x667 + x668 + x669 + x682 + x683 + x684 + x685 + x702 + x703 + x704
      + x705 + x714 + x715 + x716 + x721 + x722 + x727 <= 1
 c39: x178 + x179 + x180 + x181 + x182 + x183 + x184 + x185 + x186 + x187
      + x188 + x189 + x190 + x191 + x192 + x193 + x194 + x195 + x196 + x197
      + x198 + x199 + x200 + x201 + x202 + x203 + x204 + x205 + x206 + x207
      + x489 + x490 + x491 + x507 + x508 + x543 + x544 + x609 + x610 + x626
      + x655 + x670 + x686 + x687 + x688 + x717 + x718 + x719 + x728 <= 1
 c41: x208 + x209 + x210 + x211 + x212 + x213 + x214 + x215 + x216 + x217
      + x218 + x219 + x220 + x221 + x222 + x223 + x224 + x225 + x226 + x227
      + x228 + x229 + x230 + x231 + x232 + x233 + x234 + x235 + x236 + x237
      + x238 + x239 + x240 + x492 + x493 + x494 + x495 + x496 + x509 + x545
      + x546 + x547 + x548 + x549 + x550 + x595 + x611 + x612 + x627 + x642
      + x656 + x671 + x672 + x673 + x689 + x720 + x723 <= 1
 c43: x241 + x242 + x243 + x244 + x245 + x246 + x247 + x248 + x249 + x250
      + x251 + x252 + x253 + x254 + x255 + x256 + x257 + x258 + x510 + x551
      + x552 + x553 + x554 + x555 + x596 + x628 + x643 + x657 + x690 + x706
      <= 1
End
